c instance by G2
c solution = 01110101010011111
c Known solution cost is 858 
p cnf 17 30
w 20 91 84 68 18 29 65 37 57 75 16 45 30 79 52 63 29
-4 -5 1 0
-11 -10 1 0
15 -14 -10 0
-14 -1 -4 0
-14 11 13 0
-10 7 8 0
6 -2 5 0
-6 9 10 0
16 -8 12 0
17 -10 -3 0
-4 -11 -2 0
-13 -1 -16 0
-9 -12 13 0
-4 14 -16 0
6 -13 -3 0
3 -1 16 0
-10 11 -5 0
-9 -15 -16 0
-13 -16 -12 0
2 -17 -14 0
-17 -3 13 0
5 -12 16 0
8 1 -3 0
-3 -6 4 0
-13 -7 -3 0
-17 15 -3 0
-6 14 17 0
-1 -11 4 0
3 5 1 0
-16 -15 6 0
